
Gurobi 13.0.1 (linux64) logging started Tue Apr  7 17:53:46 2026

Set parameter LogFile to value "logs_sparse/75B_6F_robust_gamma_0d025_theta_0d05199999999999999_2026-04-07_17h53m15s.log"
Set parameter MIPGap to value 0.005
Set parameter OptimalityTol to value 0.005
Gurobi Optimizer version 13.0.1 build v13.0.1rc0 (linux64 - "Linux Mint 22")

CPU model: 12th Gen Intel(R) Core(TM) i7-12700, instruction set [SSE2|AVX|AVX2]
Thread count: 20 physical cores, 20 logical processors, using up to 20 threads

Non-default parameters:
TimeLimit  3600
SoftMemLimit  12
MIPGap  0.005
OptimalityTol  0.005

Optimize a model with 90326 rows, 1733346 columns and 5286408 nonzeros (Max)
Model fingerprint: 0x9839d2cb
Model has 1665086 linear objective coefficients
Variable types: 23346 continuous, 1710000 integer (1710000 binary)
Coefficient statistics:
  Matrix range     [3e-05, 1e+05]
  Objective range  [1e+00, 3e+03]
  Bounds range     [1e+00, 1e+05]
  RHS range        [1e-02, 1e+05]

Presolve removed 46314 rows and 1252774 columns
Presolve time: 3.57s
Presolved: 44012 rows, 480572 columns, 1506569 nonzeros
Variable types: 11174 continuous, 469398 integer (469398 binary)
Found heuristic solution: objective -3.79086e+08
Deterministic concurrent LP optimizer: primal simplex, dual simplex, and barrier
Showing barrier log only...

Root barrier log...

Ordering time: 0.97s

Barrier statistics:
 AA' NZ     : 7.621e+05
 Factor NZ  : 6.411e+06 (roughly 260 MB of memory)
 Factor Ops : 1.809e+09 (less than 1 second per iteration)
 Threads    : 18

                  Objective                Residual
Iter       Primal          Dual         Primal    Dual     Compl     Time
   0  -2.42548805e+13  1.91376167e+09  3.52e+08 1.02e+03  1.47e+08     6s
   1  -2.91113062e+12  4.96534239e+09  4.23e+07 2.26e+02  1.79e+07     6s
   2  -8.97797526e+09  3.99774653e+09  1.41e+05 3.07e-11  6.31e+04     6s
   3  -3.72783723e+08  2.16103848e+09  6.10e+03 1.64e-10  4.59e+03     7s
   4   1.62537212e+08  1.30660144e+09  1.60e+03 8.00e-11  1.60e+03     7s
   5   2.46288856e+08  6.85261494e+08  8.13e+02 4.91e-11  6.32e+02     7s
   6   3.14313660e+08  4.22896217e+08  2.16e+02 4.87e-11  1.54e+02     7s
   7   3.19347270e+08  3.73669345e+08  1.68e+02 4.25e-11  8.94e+01     7s
   8   3.26357135e+08  3.51854726e+08  9.51e+01 4.41e-10  4.48e+01     7s
   9   3.32557173e+08  3.42823703e+08  3.01e+01 3.10e-10  1.61e+01     7s
  10   3.34164330e+08  3.40327264e+08  1.37e+01 3.09e-10  8.59e+00     7s
  11   3.35259269e+08  3.38128658e+08  2.86e+00 2.96e-10  3.28e+00     7s
  12   3.35514914e+08  3.36868640e+08  7.86e-01 2.89e-10  1.42e+00     8s
  13   3.35651745e+08  3.36217175e+08  1.98e-01 2.69e-10  5.77e-01     8s
  14   3.35723613e+08  3.36048306e+08  7.18e-02 2.69e-10  3.31e-01     8s
  15   3.35787470e+08  3.35911034e+08  1.63e-02 2.68e-10  1.26e-01     8s
  16   3.35805093e+08  3.35876617e+08  6.90e-03 2.86e-10  7.28e-02     8s
  17   3.35813256e+08  3.35844161e+08  2.98e-03 3.23e-10  3.14e-02     8s
  18   3.35816709e+08  3.35834318e+08  1.53e-03 3.31e-10  1.79e-02     8s
  19   3.35817894e+08  3.35828024e+08  1.12e-03 3.27e-10  1.03e-02     8s
  20   3.35819477e+08  3.35827032e+08  5.21e-04 4.05e-10  7.68e-03     8s
  21   3.35820161e+08  3.35825625e+08  2.76e-04 3.62e-10  5.56e-03     8s
  22   3.35820625e+08  3.35824421e+08  1.36e-04 3.93e-10  3.86e-03     9s
  23   3.35820792e+08  3.35823032e+08  8.18e-05 3.12e-10  2.28e-03     9s
  24   3.35820876e+08  3.35822587e+08  6.10e-05 3.82e-10  1.74e-03     9s
  25   3.35820947e+08  3.35822303e+08  4.36e-05 4.39e-10  1.38e-03     9s
  26   3.35820993e+08  3.35822020e+08  2.99e-05 4.57e-10  1.04e-03     9s
  27   3.35821045e+08  3.35821658e+08  1.75e-05 4.18e-10  6.23e-04     9s
  28   3.35821082e+08  3.35821409e+08  8.09e-06 3.17e-10  3.33e-04     9s
  29   3.35821100e+08  3.35821304e+08  4.59e-06 2.92e-10  2.07e-04     9s
  30   3.35821104e+08  3.35821244e+08  3.89e-06 3.93e-10  1.42e-04    10s
  31   3.35821108e+08  3.35821238e+08  3.08e-06 4.56e-10  1.32e-04    10s
  32   3.35821110e+08  3.35821220e+08  2.81e-06 4.45e-10  1.12e-04    10s
  33   3.35821111e+08  3.35821201e+08  2.47e-06 4.76e-10  9.15e-05    10s
  34   3.35821116e+08  3.35821176e+08  1.56e-06 3.51e-10  6.01e-05    10s
  35   3.35821118e+08  3.35821169e+08  1.21e-06 4.04e-10  5.20e-05    10s
  36   3.35821120e+08  3.35821156e+08  8.73e-07 3.29e-10  3.65e-05    10s
  37   3.35821122e+08  3.35821143e+08  4.60e-07 3.32e-10  2.08e-05    11s
  38   3.35821125e+08  3.35821131e+08  8.11e-08 2.69e-10  6.62e-06    11s
  39   3.35821125e+08  3.35821128e+08  3.34e-08 2.73e-10  3.17e-06    11s
  40   3.35821125e+08  3.35821128e+08  2.92e-08 3.44e-10  3.12e-06    11s

Barrier solved model in 40 iterations and 10.94 seconds (14.85 work units)
Optimal objective 3.35821125e+08


Root crossover log...

   14804 DPushes remaining with DInf 0.0000000e+00                11s
       0 DPushes remaining with DInf 0.0000000e+00                11s

   11619 PPushes remaining with PInf 1.8648458e-01                11s
       0 PPushes remaining with PInf 0.0000000e+00                12s

  Push phase complete: Pinf 0.0000000e+00, Dinf 2.0315252e+05     12s


Root simplex log...

Iteration    Objective       Primal Inf.    Dual Inf.      Time
   25571    3.3582113e+08   0.000000e+00   2.031522e+05     12s
   27425    3.3582113e+08   0.000000e+00   0.000000e+00     13s
Crossover time: 2.07 seconds (2.45 work units)
Concurrent spin time: 0.32s

Solved with barrier

Root relaxation: objective 3.358211e+08, 27425 iterations, 8.84 seconds (9.85 work units)

    Nodes    |    Current Node    |     Objective Bounds      |     Work
 Expl Unexpl |  Obj  Depth IntInf | Incumbent    BestBd   Gap | It/Node Time

     0     0 3.3582e+08    0 6704 -3.791e+08 3.3582e+08   189%     -   17s
H    0     0                    1.931652e+08 3.3582e+08  73.9%     -   18s
H    0     0                    2.886868e+08 3.3582e+08  16.3%     -   18s
H    0     0                    3.001109e+08 3.3582e+08  11.9%     -   19s
H    0     0                    3.052553e+08 3.3582e+08  10.0%     -   24s
H    0     0                    3.111813e+08 3.3582e+08  7.92%     -   28s
H    0     0                    3.121649e+08 3.3582e+08  7.58%     -   36s
H    0     0                    3.270881e+08 3.3582e+08  2.67%     -   39s
H    0     0                    3.270886e+08 3.3582e+08  2.67%     -   49s
     0     0 3.3582e+08    0 6996 3.2709e+08 3.3582e+08  2.67%     -  860s
H    0     0                    3.270894e+08 3.3582e+08  2.67%     -  885s
H    0     0                    3.273585e+08 3.3582e+08  2.59%     -  902s
H    0     0                    3.274233e+08 3.3582e+08  2.56%     -  948s
H    0     0                    3.276992e+08 3.3582e+08  2.48%     -  962s
H    0     0                    3.278567e+08 3.3582e+08  2.43%     -  962s
H    0     0                    3.279281e+08 3.3582e+08  2.41%     -  975s
H    0     0                    3.279281e+08 3.3582e+08  2.41%     - 1043s
H    0     0                    3.279572e+08 3.3582e+08  2.40%     - 1043s
     0     0 3.3582e+08    0 6624 3.2796e+08 3.3582e+08  2.40%     - 1434s
     0     0 3.3582e+08    0 6150 3.2796e+08 3.3582e+08  2.40%     - 2584s
H    0     0                    3.289742e+08 3.3582e+08  2.08%     - 3150s
H    0     0                    3.299077e+08 3.3582e+08  1.79%     - 3151s
H    0     0                    3.310027e+08 3.3582e+08  1.46%     - 3154s
H    0     0                    3.317063e+08 3.3582e+08  1.24%     - 3158s
H    0     0                    3.329304e+08 3.3582e+08  0.87%     - 3165s
H    0     0                    3.329311e+08 3.3582e+08  0.87%     - 3177s
H    0     0                    3.330341e+08 3.3582e+08  0.84%     - 3180s
H    0     0                    3.332714e+08 3.3582e+08  0.77%     - 3194s
H    0     0                    3.334290e+08 3.3582e+08  0.72%     - 3197s
H    0     0                    3.334347e+08 3.3582e+08  0.72%     - 3204s
H    0     0                    3.335934e+08 3.3582e+08  0.67%     - 3204s
H    0     0                    3.340117e+08 3.3582e+08  0.54%     - 3205s
H    0     0                    3.341534e+08 3.3582e+08  0.50%     - 3212s
H    0     0                    3.341793e+08 3.3582e+08  0.49%     - 3212s
H    0     0                    3.341883e+08 3.3582e+08  0.49%     - 3212s
H    0     0                    3.344323e+08 3.3582e+08  0.42%     - 3212s

Cutting planes:
  MIR: 4
  Flow cover: 12
  Zero half: 7
  RLT: 2674

Explored 1 nodes (910283 simplex iterations) in 3212.59 seconds (5813.68 work units)
Thread count was 20 (of 20 available processors)

Solution count 10: 3.34432e+08 3.34188e+08 3.34179e+08 ... 3.33034e+08

Optimal solution found (tolerance 5.00e-03)
Best objective 3.344322879830e+08, best bound 3.358210248224e+08, gap 0.4153%
